\ File written by Highs .lp filereader
min
 obj: +1 x0 +1 x1 +1 x2 +0 x3 +0 x4 
st
 con0lo: +1 x0 +1 x1 >= +1
 con1lo: +4 x0 +2 x1 +2 x2 >= +4
 con2lo: +2 x1 +3 x2 >= +4
 con3lo: +4 x0 +4 x1 +4 x2 >= +8
 con4: +4 x0 -1 x1 -1 x3 = +0
 con5: +4 x0 -1 x2 -1 x4 = +0
bounds
 +0 <= x0 <= +1
 +0 <= x1 <= +4
 +0 <= x2 <= +4
 +0 <= x3 <= +0
 +0 <= x4 <= +0
end
